n = 108;
k = 2750;
price = [18, 25, 20, 16, 23, 16, 25, 21, 16, 22, 17, 19, 15, 22, 17, 23, 23, 18, 15, 24, 23, 22, 15, 17, 18, 15, 16, 24, 22, 25, 25, 16, 16, 21, 21, 22, 23, 20, 25, 15, 16, 17, 21, 17, 25, 15, 22, 15, 15, 20, 15, 21, 20, 19, 22, 16, 22, 15, 22, 23, 17, 15, 17, 18, 19, 20, 22, 19, 21, 20, 19, 18, 15, 24, 16, 17, 18, 17, 22, 25, 18, 16, 24, 21, 25, 16, 16, 16, 25, 15, 22, 18, 19, 17, 15, 19, 19, 22, 20, 19, 19, 20, 18, 16, 23, 25, 18, 15];
m = 0;
buy = [];
free = [];
